100
[10,11,12,13,14,15,16,17,18,19,20,21,22,23,24,25,26,27,28,29,30,31,32,33,34,35,36,37,38,39,40,41,42,43,44,45,46,47,48,49,50,51,52,53,54,55,56,57,58,59,60,61,62,63,64,65,66,67,68,69,70]
[20,19,14,19,16,21,19,14,14,11,15,16,15,22,11,16,12,18,20,23,10,16,13,15,20,14,19,19,22,19,16,12,18,19,17,13,15,14,17,13,14,18,21,20,20,15,14,21,17,11,11,13,16,19,15,15,21,13,15,13,22]
